Translating instance to solver...

Set parameter TimeLimit to value 28800
Gurobi Optimizer version 11.0.2 build v11.0.2rc0 (linux64 - "Ubuntu 22.04.4 LTS")

CPU model: Intel(R) Xeon(R) Gold 5120 CPU @ 2.20GHz, instruction set [SSE2|AVX|AVX2|AVX512]
Thread count: 28 physical cores, 56 logical processors, using up to 28 threads

Academic license 2463511 - for non-commercial use only - registered to lu___@cefet-rj.br
Optimize a model with 85165 rows, 41523 columns and 194718 nonzeros
Model fingerprint: 0x52b5e4d9
Variable types: 1 continuous, 41522 integer (41460 binary)
Coefficient statistics:
  Matrix range     [1e+00, 1e+05]
  Objective range  [3e-01, 8e-01]
  Bounds range     [1e+00, 6e+01]
  RHS range        [1e+00, 9e+01]
Presolve removed 69243 rows and 34979 columns
Presolve time: 1.28s
Presolved: 15922 rows, 6544 columns, 46489 nonzeros
Variable types: 0 continuous, 6544 integer (6483 binary)

Root relaxation: objective 1.994410e+00, 2102 iterations, 0.11 seconds (0.14 work units)

    Nodes    |    Current Node    |     Objective Bounds      |     Work
 Expl Unexpl |  Obj  Depth IntInf | Incumbent    BestBd   Gap | It/Node Time

     0     0    1.99441    0   59          -    1.99441      -     -    1s
H    0     0                       5.9030190    1.99441  66.2%     -    2s
     0     0    2.01954    0  215    5.90302    2.01954  65.8%     -    2s
H    0     0                       3.0235640    2.02512  33.0%     -    3s
     0     0    2.05945    0  277    3.02356    2.05945  31.9%     -    3s
     0     0    2.10204    0  335    3.02356    2.10204  30.5%     -    3s
     0     0    2.10204    0  314    3.02356    2.10204  30.5%     -    3s
     0     0    2.12356    0  284    3.02356    2.12356  29.8%     -    4s
     0     0    2.12356    0  286    3.02356    2.12356  29.8%     -    4s
H    0     0                       2.5735640    2.13293  17.1%     -    4s
     0     0    2.13293    0  520    2.57356    2.13293  17.1%     -    4s
     0     0    2.13293    0  473    2.57356    2.13293  17.1%     -    4s
     0     0    2.13293    0   56    2.57356    2.13293  17.1%     -    5s
     0     0    2.13293    0  310    2.57356    2.13293  17.1%     -    6s
     0     0    2.13293    0  481    2.57356    2.13293  17.1%     -    7s
     0     0    2.13293    0  452    2.57356    2.13293  17.1%     -    7s
     0     0    2.13293    0  430    2.57356    2.13293  17.1%     -    7s
     0     0    2.13293    0  562    2.57356    2.13293  17.1%     -    7s
     0     0    2.13293    0  648    2.57356    2.13293  17.1%     -    7s
     0     0    2.13293    0  619    2.57356    2.13293  17.1%     -    7s
     0     0    2.14073    0  504    2.57356    2.14073  16.8%     -    8s
     0     0    2.14281    0  468    2.57356    2.14281  16.7%     -    8s
     0     0    2.14464    0  511    2.57356    2.14464  16.7%     -    8s
     0     0    2.16307    0  644    2.57356    2.16307  16.0%     -    9s
     0     0    2.16307    0  590    2.57356    2.16307  16.0%     -    9s
     0     2    2.16307    0  590    2.57356    2.16307  16.0%     -   10s
    87    98    2.17621    7  180    2.57356    2.17078  15.7%   441   15s
  1237   576    2.36364   24  303    2.57356    2.17078  15.7%   189   20s
  2852   935    2.44816   12  315    2.57356    2.19810  14.6%   192   25s
  3701  1044    2.21950   10  232    2.57356    2.21347  14.0%   186   30s

Cutting planes:
  Learned: 274
  Gomory: 2
  Implied bound: 381
  Clique: 3
  MIR: 66
  StrongCG: 1
  Zero half: 10
  RLT: 157
  Relax-and-lift: 28
  BQP: 177

Explored 6860 nodes (1170935 simplex iterations) in 34.87 seconds (30.24 work units)
Thread count was 28 (of 56 available processors)

Solution count 3: 2.57356 3.02356 5.90302 

Optimal solution found (tolerance 1.00e-04)
Best objective 2.573564000000e+00, best bound 2.573564000000e+00, gap 0.0000%

Solver Wallclock Time (for this epsilon): 34.874577045440674 s
Python wallclock Time (for this epsilon): 41.23235535621643 s


Total Elapsed Time (since program call): 644.7758572101593 s

Results:

I = 2.573564 mA
C = 90.0 points
C ~= 36.0 km^2

Minimum Epsilon for this instance = 10
Maximum Epsilon for this instance = 100

Current Epsilon = 90


Preprocessing Time (for this epsilon): 0.010261297225952148 s


Updated solution vectors:
sol_I = [-0.9176730000000001,-1.223564,-1.367673,-1.367673,-1.367673,-1.6735639999999998,-1.817673,-2.123564,-2.573564]
sol_C = [15.0,20.0,49.0,47.0,56.0,61.0,70.0,80.0,90.0]
sol_eps = [10,20,30,40,50,60,70,80,90]
sol_gap = [0.0,0.0,0.0,3.0375000092952575e-07,1.912499996148398e-07,0.0,0.0,0.0,0.0]
